language ESSENCE' 1.0
$ minion Nodes: 1
$ minion TotalTime: 0.000409
$ Savile Row TotalTime: 0.32
letting pain_tuple2 be [8, 9]
letting pain_tuple1_tuple1_Explicit_Explicit be [[[2]], 
[[1]]]
letting pain_tuple1_tuple2 be [5, 4]
